
Gurobi 10.0.3 (linux64, gurobi_cl) logging started Fri Jun 21 19:27:00 2024

Set parameter LogFile to value "gurobi.log"
Restricted license - for non-production use only - expires 2024-10-28

Gurobi 10.0.3 (linux64, gurobi_cl) logging started Fri Jun 21 19:27:13 2024

Set parameter LogFile to value "gurobi.log"
Restricted license - for non-production use only - expires 2024-10-28

Gurobi 10.0.3 (linux64, gurobi_cl) logging started Fri Jun 21 19:28:51 2024

Set parameter Username
Set parameter LogFile to value "gurobi.log"
Academic license - for non-commercial use only - expires 2024-10-05
Using license file /usr0/home/naveenr/gurobi.lic
